c Random 4-CNF over 20 variables and 100 clauses
c Generated with `cnfgen`
c (C) 2012-2016 Massimo Lauria <lauria.massimo@gmail.com>
c https://massimolauria.github.io/cnfgen
c
c COMMAND LINE: cnfgen --output tmp-4-20-100.dimacs --output-format dimacs randkcnf 4 20 100
c
c sdimacs generated by gen-sdimacs
c
p cnf 20 100
r 0.5 1 2 3 4 5 6 7 8 9 10 0
e  11 12 13 14 15 16 17 18 19 20 0
6 -13 15 18 0
-4 15 -18 -20 0
2 -4 -12 19 0
-2 10 -16 -17 0
-1 -2 18 19 0
4 -7 11 12 0
8 -12 -19 20 0
6 -8 -16 18 0
-7 15 17 19 0
1 -3 13 -19 0
-6 13 -18 19 0
3 -4 -6 12 0
3 5 6 15 0
4 6 -13 -16 0
1 -15 -18 19 0
-4 -6 9 18 0
2 -11 12 20 0
-4 12 -14 19 0
-2 8 12 15 0
7 -8 -19 20 0
-2 -15 19 20 0
2 6 -13 17 0
-8 -18 -19 -20 0
8 -12 13 20 0
1 2 5 12 0
-6 13 15 17 0
-1 -8 17 -20 0
2 7 11 -13 0
2 -6 -14 20 0
1 4 -5 -16 0
-5 -11 14 20 0
1 -3 -16 -18 0
8 -10 19 20 0
-8 9 13 19 0
4 -5 9 16 0
4 7 -15 19 0
-4 14 -15 19 0
3 -11 12 -15 0
3 4 -8 -13 0
2 -7 15 -20 0
2 -9 -12 -16 0
5 8 -11 -19 0
4 -5 -12 15 0
4 -7 -10 -11 0
-5 6 -13 -19 0
1 -2 -4 5 0
1 2 3 5 0
4 -14 -16 18 0
5 -10 -12 -20 0
-1 2 -4 13 0
3 -10 17 -19 0
-2 12 -17 -18 0
-2 -14 16 19 0
2 -15 -17 18 0
-2 7 -8 16 0
-16 18 -19 20 0
-5 -11 13 14 0
-1 7 11 -15 0
1 -2 -6 -8 0
-3 -6 -10 17 0
3 -10 13 -19 0
-8 -16 -17 18 0
6 -10 15 17 0
3 5 15 17 0
-1 -11 15 -19 0
-8 15 -17 -20 0
-8 10 14 -17 0
-6 9 10 12 0
6 -9 -10 19 0
-3 -6 16 -17 0
8 -15 18 -20 0
-9 10 -11 -16 0
-8 -10 -11 -20 0
16 -18 19 20 0
-6 12 -19 -20 0
-4 5 19 -20 0
-2 -3 8 -10 0
-10 15 -19 20 0
2 6 10 -12 0
2 -8 -19 20 0
9 12 -13 18 0
8 15 -16 18 0
4 18 -19 20 0
-4 8 -19 20 0
2 4 5 16 0
-1 -6 -16 -19 0
-10 13 -14 -17 0
6 -10 -12 20 0
7 -14 16 -17 0
7 -12 14 20 0
7 -9 11 20 0
1 -8 16 18 0
-6 -15 -16 -17 0
-6 11 15 -16 0
-4 -8 12 -19 0
-9 -11 13 18 0
4 10 15 18 0
3 -13 -15 18 0
2 -3 -5 -19 0
-11 -13 -14 15 0
